471
550
587
589
546
571
611
476
521
744
289
288
337
243
265
229
245
324
318
304
155
167
161
142
194
281
280
258
272
262
75
87
88
87
80
254
248
273
254
232
34
30
31
32
68
168
395
921
2111
4749
72
69
82
65
73
6
5
5
5
5
30
35
30
32
32
16
16
15
17
15
197
174
183
186
192
71
75
70
65
61
